<number of tasks>
50

<cycle time>
1000

<order strength>
0.596


<task times>
1 94
2 33
3 93
4 60
5 182
6 170
7 41
8 65
9 43
10 151
11 55
12 117
13 66
14 173
15 130
16 105
17 55
18 53
19 43
20 55
21 66
22 178
23 77
24 38
25 180
26 115
27 60
28 73
29 25
30 58
31 478
32 83
33 282
34 77
35 70
36 41
37 25
38 365
39 84
40 47
41 61
42 115
43 101
44 169
45 325
46 95
47 115
48 23
49 84
50 324

<precedence relations>
1,3
1,4
1,5
1,6
1,7
2,4
2,5
2,6
2,7
3,8
4,9
4,10
4,11
4,12
5,10
5,11
5,12
6,10
6,11
6,12
7,10
7,11
7,12
8,14
9,13
10,49
10,50
11,14
11,15
12,14
12,15
13,16
14,17
14,18
15,17
15,18
16,21
17,19
17,20
17,22
17,23
18,22
18,23
19,24
20,25
21,28
22,26
22,28
22,29
23,27
23,28
23,29
24,30
25,35
26,31
27,32
28,33
28,34
28,35
29,33
29,34
29,35
30,38
31,39
32,40
33,36
33,40
34,37
34,40
35,40
36,41
37,42
38,43
39,44
40,44
40,45
40,48
41,46
42,48
43,47
44,50
45,49

<end>
